130 6778
1 127 107 104 43 25 48 113 32 84 36 119 111 123 101 82 57 9 56 65 52 75 74 73 99 87 12 95 79 38 92 91 72 58 49 106 53 120 60 51 42 44 93 37 47 40 22 23 33 21 126 3 114 108 8 18 46 80 118 20 4 35 54 17 34 31 19 27 100 116 24 15 29 81 103 77 94 89 110 98 68 63 70 7 97 26 88 86 69 64 124 129 61 109 76 11 5 45 16 128 71 130 50 2 122 55 6 102 10 14 67 96 13 121 78 66 85 125 90 59 30 83 115 28 62 105 112 117 39 41 
